peakDumbCharging = 25900; 
Machine = anon_enum(16); 
machineSpeed = [3700,3700,3700,3700,3700,3700,3700,3700,3700,3700,3700,3700,3700,3700,3700,3700]; 
machineLoad = [3700,3700,3700,3700,3700,3700,3700,3700,3700,3700,3700,3700,3700,3700,3700,3700]; 
Car = anon_enum(28); 
demandCar = [15320,16160,4600,8880,4520,6320,9520,7080,28000,1000,23000,4800,9960,2440,2600,24480,21040,6960,4000,4880,2360,12640,14320,1160,18400,7480,30680,21000]; 
arrivalCar = [76,74,74,73,70,69,67,66,66,65,63,62,62,62,62,61,61,57,53,51,47,43,41,39,32,31,30,30]; 
departureCar = [81,80,77,77,73,73,72,72,75,67,70,66,69,64,71,71,71,61,56,53,50,48,46,40,39,34,53,46]; 
